40
    63    27    17    40    27    48    15    46    78    96    81    39    99    65     2    26     2     3    40    19    28    10    38    33    44    39    15    85    49    99    70    96    66    47    79    90    48    98    97    94
     7     8     1     4     9     8     9     1    10    10     6     4     2     3     5     8     3     1     9     7     3     5     8     5     6     2     2     8     8     4     7     3     1     1     2     9     7     6     7     3
   625   448   143   797   452   717   316   387   491   464   203   778   536   518   462   512   296   316   756   578   131   129   691   685   575   431   369    57   607    17   505   289   453   292   509   382   690   111   254   425
